
Gurobi 11.0.3 (linux64) logging started Mon Aug 25 16:43:44 2025

Set parameter LogFile to value "/home/yihong/Coding/OR_SUC/SUC_epstheta_results_bigM100000_thread4/case24_ieee_rts_theta0.001_epsilon0.1_gurobi_seed210000_num_gen100_N_WDR50_load_scaling_factor1_proposed_eps_T1quadra_cost_bc1.03.txt"
Set parameter TimeLimit to value 3600
Gurobi Optimizer version 11.0.3 build v11.0.3rc0 (linux64 - "Ubuntu 20.04.6 LTS")

CPU model: AMD EPYC 7532 32-Core Processor, instruction set [SSE2|AVX|AVX2]
Thread count: 64 physical cores, 128 logical processors, using up to 4 threads

Academic license 2399124 - for non-commercial use only - registered to yi___@ed.ac.uk
Optimize a model with 1871 rows, 1291 columns and 53206 nonzeros
Model fingerprint: 0x84c2387e
Model has 100 quadratic constraints
Variable types: 1191 continuous, 100 integer (100 binary)
Coefficient statistics:
  Matrix range     [3e-04, 6e+01]
  QMatrix range    [2e-03, 8e-03]
  QLMatrix range   [5e-02, 6e+01]
  Objective range  [1e+00, 1e+00]
  Bounds range     [1e+00, 1e+00]
  RHS range        [5e-02, 9e+03]
Presolve removed 1614 rows and 742 columns
Presolve time: 0.01s
Presolved: 257 rows, 549 columns, 1822 nonzeros
Presolved model has 100 quadratic constraint(s)
Variable types: 449 continuous, 100 integer (100 binary)

Root relaxation: objective 1.010149e+03, 185 iterations, 0.00 seconds (0.00 work units)

    Nodes    |    Current Node    |     Objective Bounds      |     Work
 Expl Unexpl |  Obj  Depth IntInf | Incumbent    BestBd   Gap | It/Node Time

H    0     0                    34754.388953 1010.14898  97.1%     -    0s
*    0     0               0    34754.388953 1010.14898  97.1%     -    0s
     0     0 16900.7290    0   32 34754.3890 16900.7290  51.4%     -    0s
     0     0 32191.0332    0    1 34754.3890 32191.0332  7.38%     -    0s
     0     0 32192.9054    0    1 34754.3890 32192.9054  7.37%     -    0s
     0     0 32192.9055    0    1 34754.3890 32192.9055  7.37%     -    0s
     0     0 32192.9055    0    1 34754.3890 32192.9055  7.37%     -    0s
     0     2 32192.9055    0    1 34754.3890 32192.9055  7.37%     -    0s
H   14    15                    32208.817089 32193.0254  0.05%   6.6    0s

Cutting planes:
  Gomory: 5
  Implied bound: 11
  Flow cover: 38
  RLT: 4
  Relax-and-lift: 5

Explored 15 nodes (633 simplex iterations) in 0.18 seconds (0.06 work units)
Thread count was 4 (of 128 available processors)

Solution count 2: 32208.8 34754.4 

Optimal solution found (tolerance 1.00e-03)
Best objective 3.220881708884e+04, best bound 3.219302538009e+04, gap 0.0490%

Gurobi 11.0.3 (linux64) logging started Mon Aug 25 16:43:45 2025

Set parameter LogFile to value "/home/yihong/Coding/OR_SUC/SUC_epstheta_results_bigM100000_thread4/case24_ieee_rts_theta0.001_epsilon0.1_gurobi_seed210000_num_gen100_N_WDR50_load_scaling_factor1_proposed_eps_T1quadra_cost_bc1.03.txt"
Set parameter TimeLimit to value 3600
Gurobi Optimizer version 11.0.3 build v11.0.3rc0 (linux64 - "Ubuntu 20.04.6 LTS")

CPU model: AMD EPYC 7532 32-Core Processor, instruction set [SSE2|AVX|AVX2]
Thread count: 64 physical cores, 128 logical processors, using up to 4 threads

Academic license 2399124 - for non-commercial use only - registered to yi___@ed.ac.uk
Optimize a model with 1871 rows, 1292 columns and 53465 nonzeros
Model fingerprint: 0x84747ccf
Model has 101 quadratic constraints
Variable types: 1192 continuous, 100 integer (100 binary)
Coefficient statistics:
  Matrix range     [3e-04, 6e+01]
  QMatrix range    [2e-03, 5e+01]
  QLMatrix range   [5e-02, 6e+01]
  Objective range  [1e+00, 1e+00]
  Bounds range     [1e-01, 1e+00]
  RHS range        [1e+00, 3e+04]
  QRHS range       [5e-02, 5e-02]
Presolve removed 1605 rows and 734 columns
Presolve time: 0.01s
Presolved: 368 rows, 658 columns, 2563 nonzeros
Presolved model has 100 quadratic constraint(s)
Presolved model has 1 bilinear constraint(s)

Solving non-convex MIQCP

Variable types: 558 continuous, 100 integer (100 binary)

Root relaxation: objective 1.445416e-05, 431 iterations, 0.00 seconds (0.00 work units)

    Nodes    |    Current Node    |     Objective Bounds      |     Work
 Expl Unexpl |  Obj  Depth IntInf | Incumbent    BestBd   Gap | It/Node Time

     0     0    0.00001    0    3          -    0.00001      -     -    0s
     0     0    0.00001    0    2          -    0.00001      -     -    0s
     0     0    0.00001    0    2          -    0.00001      -     -    0s
     0     0    0.00001    0    2          -    0.00001      -     -    0s
     0     0    0.00001    0    2          -    0.00001      -     -    0s
H    0     0                       0.0001389    0.00001  89.6%     -    0s
H    0     0                       0.0001333    0.00001  89.1%     -    0s
H    0     0                       0.0001323    0.00001  89.1%     -    0s
H    0     0                       0.0001300    0.00001  88.9%     -    0s
H    0     0                       0.0001240    0.00001  88.3%     -    0s
     0     2    0.00012    0    2    0.00012    0.00012  6.68%     -    0s
H   46    44                       0.0001181    0.00012  1.56%  10.1    0s
*   46    44              10       0.0001181    0.00012  1.56%  10.1    0s
H   53    39                       0.0001170    0.00012  0.63%   9.0    0s
*   53    39              10       0.0001170    0.00012  0.63%   9.1    0s
H   62    32                       0.0001167    0.00012  0.01%   8.3    0s
*   62    32              11       0.0001167    0.00012  0.01%   8.4    0s

Cutting planes:
  Gomory: 1
  Implied bound: 2
  MIR: 1
  Flow cover: 1

Explored 71 nodes (1076 simplex iterations) in 0.26 seconds (0.15 work units)
Thread count was 4 (of 128 available processors)

Solution count 8: 0.000116674 0.000117007 0.000118113 ... 0.000138898

Optimal solution found (tolerance 1.00e-03)
Best objective 1.166737448454e-04, best bound 1.166604920330e-04, gap 0.0114%
